p cnf 10 18
-8 4 6 10 3 2 -9 0
7 -9 -8 -3 10 6 5 1 0
3 -6 -10 4 2 0
-6 -10 2 -9 4 7 -8 -3 0
-3 -4 -10 1 -7 8 -9 0
4 -8 10 6 0
3 -5 1 10 -4 -7 0
-10 9 -1 6 8 -5 -7 -2 0
3 8 4 2 -5 0
-10 9 3 -2 0
-9 8 -2 -10 -6 7 5 -4 -3 0
-10 -9 2 5 -3 -4 8 0
-3 -10 -1 0
9 -6 10 8 -5 4 0
-6 8 9 10 0
-7 -3 -2 -1 0
10 -5 -3 8 7 -4 1 -2 9 0
3 7 -1 -2 -8 0
